c --- [ banner ] -------------------------------------------------------------
c 
c CaDiCaL SAT Solver
c Copyright (c) 2016-2025
c A. Biere, M. Fleury, N. Froleyks, K. Fazekas, F. Pollitt, T. Faller
c JKU Linz, University of Freiburg, TU Wien
c 
c Version 3.0.0 7b99c07f0bcab5824a5a3ce62c7066554017f641
c Apple clang version 21.0.0 (clang-2100.0.123.102) -Wall -Wextra -O3 -DNDEBUG -DNCLOSEFROM
c Thu Apr 23 22:35:47 PDT 2026 Darwin dada-mun-26.local 25.4.0 arm64
c 
c --- [ limit ] --------------------------------------------------------------
c 
c setting time limit to 300 seconds real time (due to '-t 300')
c 
c --- [ proof tracing ] ------------------------------------------------------
c 
c opening file to write 'scratch/atail-force/generic-biapex-kalmanson-cnf/n11_a1_round2.drat'
c writing binary proof trace to 'scratch/atail-force/generic-biapex-kalmanson-cnf/n11_a1_round2.drat'
c 
c --- [ parsing input ] ------------------------------------------------------
c 
c reading DIMACS file from 'scratch/atail-force/generic-biapex-kalmanson-cnf/n11_a1_round2.cnf'
c opening file to read 'scratch/atail-force/generic-biapex-kalmanson-cnf/n11_a1_round2.cnf'
c found 'p cnf 242 158669' header
c parsed 158669 clauses in 0.04 seconds process time
c 
c --- [ options ] ------------------------------------------------------------
c 
c all options are set to their default value
c 
c --- [ solving ] ------------------------------------------------------------
c 
c time measured in process time since initialization
c 
c  seconds  reduction conflicts       size tier2       variables
c         MB    restarts   redundant    glue  trail        remaining
c          level     rate       size/glu tier1  irredundant
c 
c *  0.04  0  0 0   0  0    0    0 0.0 0 0 2 6  0% 158627 200 83%
c (  0.05  0  0 0   0  0    0    0 0.0 0 0 2 6  0% 158627 200 83%
c .  0.05  0  0 0   0  0    0    0 0.0 0 0 2 6  0% 158627 200 83%
c f  0.06  0  0 0   0  0    0    0 0.0 0 0 2 6  0% 156386 364 150%
c e  0.07  0  0 0   0  0    0    0 0.0 0 0 2 6  0% 156092 224 93%
c P  0.07  0  0 0   0  0    0    0 0.0 0 0 2 6  0% 156092 224 93%
c )  0.07  0  0 0   0  0    0    0 0.0 0 0 2 6  0% 156092 224 93%
c {  0.08  0  0 0   0  0    0    0 0.0 0 0 2 6  0% 156092 224 93%
c -  0.09  0 64 1  13  3  301  126 1.4 16 11 2 6 59% 156092 224 93%
c -  0.10  0 42 2  35  2  817  272 1.5 17 12 2 6 53% 156092 224 93%
c }  0.11  0 40 2  37  2 1003  440 1.5 17 12 2 6 53% 156092 224 93%
c [  0.11  0  0 2  37  0 1003  440 0.0 0 0 2 6  0% 156092 224 93%
c O  0.11  0 17 2  37 18 1004  441 1.3 19 15 2 6 37% 156092 224 93%
c -  0.12  0 26 3  37  1 1673  427 1.4 21 15 2 6 51% 156092 224 93%
c -  0.14  0 25 4  38  1 2892  547 1.3 21 16 2 6 74% 156092 224 93%
c I  0.14  0 25 4  38  1 3009  639 1.3 21 16 2 6 73% 156092 224 93%
c ]  0.15  0 25 4  39  1 3455  997 1.4 20 15 2 6 66% 156092 224 93%
c {  0.15  0 40 4  39  2 3455  997 1.5 17 12 2 6 95% 156092 224 93%
c -  0.17  0 36 5  52  2 4497  889 1.6 17 11 2 6 81% 156092 224 93%
c O  0.23  0 33 5 155  2 6011 2213 1.6 17 10 7 11 74% 156092 224 93%
c 
c  seconds  reduction conflicts       size   tier2        variables
c         MB    restarts   redundant     glue    trail        remaining
c          level     rate       size/glue  tier1   irredundant
c 
c -  0.26  0 33 6 200  2 6497 2246 1.6 17 11 7 11 74% 156092 224 93%
c }  0.27  0 33 6 218  2 6653 2392 1.6 17 11 7 11 74% 156092 224 93%
c [  0.27  0 25 6 218  1 6653 2392 1.4 20 15 2 6 66% 156092 224 93%
c -  0.31  0 27 7 219  1 8905 3217 1.4 21 15 11 19 71% 156092 224 93%
c B  0.33  0 27 7 220  1 10013 4085 1.4 21 15 10 19 70% 156092 224 93%
c f  0.34  0 27 7 220  1 10507 4521 1.4 21 15 10 19 66% 156070 240 99%
c -  0.37  0 28 8 221  1 11720 3560 1.3 22 16 10 19 68% 156070 240 99%
c ]  0.40  0 28 8 222  1 13115 4755 1.3 22 16 10 19 69% 156070 240 99%
c {  0.40  0 33 8 222  2 13115 4755 1.6 17 11 7 11 69% 156070 240 99%
c -  0.51  0 31 9 389  3 14950 4588 1.5 17 11 7 12 68% 156070 240 99%
c #  0.51  0 31 9 389  3 15015 4646 1.5 17 11 7 12 68% 156070 240 99%
c -  0.65  0 30 10 601  3 18596 6292 1.5 17 11 7 12 68% 156070 240 99%
c }  0.66  0 30 10 609  3 18794 6479 1.5 17 11 7 12 68% 156070 240 99%
c [  0.66  0 28 10 609  1 18794 6479 1.3 22 16 10 19 69% 156070 240 99%
c s  0.67  0 28 10 609  1 19264 6885 1.3 22 16 10 19 69% 152387 240 99%
c e  0.68  0 28 10 609  1 19264 6885 1.3 22 16 10 19 69% 152386 230 95%
c s  0.68  0 28 10 609  1 19264 6885 1.3 22 16 10 19 69% 149380 230 95%
c ]  0.73  0 28 10 609  1 21017 8412 1.4 22 16 10 19 69% 149380 230 95%
c 1  0.73  0 28 10 609  1 21017 8412 1.4 22 16 10 19 69% 149380 230 95%
c 
c --- [ closing proof ] ------------------------------------------------------
c 
c DRAT proof file 'scratch/atail-force/generic-biapex-kalmanson-cnf/n11_a1_round2.drat' closed
c DRAT 24384 added clauses 49.16%
c DRAT 25219 deleted clauses 50.84%
c DRAT 1211834 bytes (1.16 MB)
c 
c --- [ result ] -------------------------------------------------------------
c 
s SATISFIABLE
v -1 -2 3 -4 -5 -6 -7 8 9 -10 11 12 -13 -14 15 -16 17 -18 -19 -20 21 -22 -23
v 24 -25 -26 27 -28 29 -30 -31 32 -33 34 -35 36 -37 38 -39 -40 41 -42 -43 -44
v -45 46 47 -48 -49 50 -51 -52 -53 -54 55 -56 -57 58 59 -60 -61 62 -63 64 -65
v -66 -67 68 -69 70 71 -72 -73 74 -75 -76 -77 -78 -79 80 -81 -82 83 84 -85 -86
v 87 -88 -89 -90 -91 92 -93 -94 -95 96 -97 98 99 100 -101 -102 -103 104 105
v -106 -107 108 -109 -110 111 112 -113 -114 -115 -116 117 118 -119 -120 -121
v -122 -123 -124 -125 -126 -127 -128 -129 -130 -131 132 -133 -134 135 -136
v -137 -138 -139 -140 -141 -142 -143 -144 -145 -146 -147 148 -149 -150 -151
v -152 -153 -154 -155 -156 -157 -158 -159 160 -161 -162 -163 -164 -165 -166
v -167 -168 169 -170 -171 -172 -173 -174 -175 -176 -177 -178 -179 -180 -181
v -182 -183 184 -185 -186 -187 -188 -189 -190 -191 -192 -193 -194 195 -196
v -197 -198 -199 -200 -201 202 -203 -204 -205 -206 -207 -208 -209 -210 -211
v -212 -213 -214 215 -216 -217 -218 -219 -220 -221 -222 223 -224 -225 -226
v -227 -228 -229 -230 -231 -232 -233 -234 -235 236 -237 -238 -239 -240 -241
v -242 0
c 
c --- [ run-time profiling ] -------------------------------------------------
c 
c process time taken by individual solving procedures
c (percentage relative to process time for solving)
c 
c         0.58   85.53% search
c         0.37   54.25% unstable
c         0.20   29.54% stable
c         0.10   14.10% simplify
c         0.04    6.30% parse
c         0.03    4.19% preprocess
c         0.02    3.63% sweep
c         0.02    2.63% factor
c         0.01    1.84% elim
c         0.01    1.51% subsume
c         0.01    1.49% congruence
c         0.01    1.29% walk
c         0.01    0.78% fastelim
c         0.00    0.45% lucky
c         0.00    0.33% probe
c         0.00    0.03% backbone
c   =================================
c         0.68   94.02% solve
c 
c last line shows process time for solving
c (percentage relative to total process time)
c 
c --- [ statistics ] ---------------------------------------------------------
c 
c chronological:              2224        10.58 %  of conflicts
c conflicts:                 21017     30738.47    per second
c backbone:                   9228      2186.73 %  of vars
c decisions:                 37139     54317.75    per second
c eliminated:                  150        35.55 %  of all variables
c factored:                    180        74.69 %  of variables
c fixed:                        42         9.95 %  of all variables
c learned:                   20285        96.52 %  per conflict
c learned_lits:             436267       100.00 %  learned literals
c minimized:                     0         0.00 %  learned literals
c shrunken:                  28521         6.54 %  learned literals
c minishrunken:              13850         3.17 %  learned literals
c otfs:                        572         2.72 %  of conflict
c propagations:             338695         0.50 M  per second
c reduced:                    9750        46.39 %  per conflict
c rephased:                      6      3502.83    interval
c restarts:                    609        34.51    interval
c stabilizing:                   3        52.26 %  of conflicts
c subsumed:                   8878         4.87 %  of all clauses
c strengthened:                636         0.35 %  of all clauses
c ticks:                  65653298       195.84    propagation
c walked:                        1     21017.00    interval
c weakened:                    645         4.29    average size
c congruence:                    3      7005.67    interval
c 
c seconds are measured in process time for solving
c 
c --- [ glue usage ] ---------------------------------------------------------
c 
c focused glue 7 used 1193 clauses 8.258% accumulated 49.70% tier1
c focused glue 8 used 1134 clauses 7.850% accumulated 57.55%
c focused glue 9-10 used 1980 clauses 13.70% accumulated 71.26%
c focused glue 11 used 800 clauses 5.538% accumulated 76.80%
c focused glue 12 used 577 clauses 3.994% accumulated 80.79% tier2
c 
c stable glue 10 used 1551 clauses 5.495% accumulated 53.54% tier1
c stable glue 11 used 1396 clauses 4.946% accumulated 58.49%
c stable glue 12-17 used 6211 clauses 22.00% accumulated 80.49%
c stable glue 18 used 685 clauses 2.427% accumulated 82.92%
c stable glue 19 used 668 clauses 2.366% accumulated 85.29% tier2
c 
c 
c --- [ resources ] ----------------------------------------------------------
c 
c total process time since initialization:         0.73    seconds
c total real time since initialization:            0.73    seconds
c maximum resident set size of process:       161088.00    MB
c 
c --- [ shutting down ] ------------------------------------------------------
c 
c exit 10
